16,0	0,0	5,7	8,7	0,0	0,0	0,0	0,0	0,0	10,6
16,8	17,4	0,0	9,3	7,0	0,0	0,0	11,8	0,0	0,0
0,0	0,0	13,9	0,0	8,5	18,5	0,0	0,0	6,1	0,0
12,6	0,0	16,4	0,0	0,0	0,0	14,0	0,0	0,0	0,0
0,0	10,0	0,0	16,8	9,4	0,0	0,0	6,8	0,0	0,0
0,0	15,5	7,6	0,0	13,1	15,6	0,0	0,0	9,7	0,0
0,0	10,5	0,0	7,7	0,0	0,0	13,1	0,0	0,0	8,7
12,3	0,0	15,2	0,0	0,0	0,0	0,0	0,0	0,0	10,2
0,0	19,8	0,0	6,6	10,8	0,0	0,0	7,5	0,0	0,0
0,0	0,0	12,0	0,0	0,0	13,3	14,2	0,0	0,0	16,5
									
4,3	3,3	4,9	3,5	4,5	4,4	3,5	4,1	4,4	4,2
